MnPSe3                                  
   1.00000000000000     
     6.3870000839000003    0.0000000000000000    0.0000000000000000
    -3.1935000420000001    5.5313043266999999    0.0000000000000000
     0.0000000000000000    0.0000000000000000   28.0000000000000000
   Mn   P    Se
     2     2     6
Direct
  0.0000000000000000  0.0000000000000000  0.0960225549999976
  0.3333333349999990  0.6666666710000015  0.0960225549999976
  0.6666667049999973  0.3333333349999990  0.0558785853188363
  0.6666667049999973  0.3333333349999990  0.1361665286811663
  0.3344515054363754  0.0011181474363781  0.0336069655036622
  0.6666667160000017  0.0011181474363781  0.1584381314963354
 -0.0011181584363755  0.3333333349999990  0.0336069655036622
 -0.0011181704363765  0.6655485235636235  0.1584381314963354
  0.3344514944363781  0.3333333349999990  0.1584381314963354
  0.6666666939999999  0.6655485235636235  0.0336069655036622
 
  0.00000000E+00  0.00000000E+00  0.00000000E+00
  0.00000000E+00  0.00000000E+00  0.00000000E+00
  0.00000000E+00  0.00000000E+00  0.00000000E+00
  0.00000000E+00  0.00000000E+00  0.00000000E+00
  0.00000000E+00  0.00000000E+00  0.00000000E+00
  0.00000000E+00  0.00000000E+00  0.00000000E+00
  0.00000000E+00  0.00000000E+00  0.00000000E+00
  0.00000000E+00  0.00000000E+00  0.00000000E+00
  0.00000000E+00  0.00000000E+00  0.00000000E+00
  0.00000000E+00  0.00000000E+00  0.00000000E+00
